c A SAT instance generated from a 3-CNF formula that had 27 clauses and 9 variables
p cnf 9 27
9 3 5 0
-6 -4 -8 0
-3 -7 4 0
-3 -8 2 0
9 -3 2 0
-2 5 -4 0
9 8 -4 0
6 -9 -8 0
3 8 -4 0
-6 5 7 0
-3 9 -6 0
-9 3 2 0
5 -3 9 0
1 9 2 0
-6 -2 1 0
-2 -3 6 0
-8 -4 1 0
-7 -2 9 0
-5 -4 8 0
4 9 -2 0
8 -9 -7 0
3 -8 6 0
1 5 2 0
2 6 -1 0
-9 2 3 0
7 3 -5 0
4 5 1 0
